DualBounds-Example/results/ExampleConfig-All-States_gradient-cuts/LA-county-step-max-45.sol
# Objective value = 1.5900283359239173e+00
B0(5) 1
B1(5) 0
B2(5) 0
B3(5) 0
B4(5) 0
B5(5) 0
B6(5) 0
B7(5) 1
B8(5) 0
B9(5) 0
B10(5) 0
B11(5) 0
B12(5) 0
B13(5) 0
B14(5) 0
B15(5) 1
B16(5) 0
B17(5) 0
B18(5) 0
B19(5) 1
B20(5) 0
B21(5) 0
B22(5) 0
B23(5) 0
B24(5) 0
B25(5) 1
B26(5) 0
B27(5) 0
B28(5) 0
B29(5) 0
B30(5) 0
B31(5) 1
B32(5) 0
B33(5) 0
B34(5) 0
B35(5) 0
B36(5) 0
B37(5) 0
B38(5) 0
B39(5) 0
B40(5) 1
B41(5) 0
B42(5) 0
B43(5) 0
B44(5) 0
B45(5) 0
B46(5) 1
B47(5) 0
B48(5) 0
B49(5) 0
B50(5) 0
B51(5) 1
B52(5) 0
B53(5) 0
B54(5) 0
B55(5) 0
B56(5) 0
B57(5) 1
B58(5) 0
B59(5) 0
B60(5) 0
B61(5) 0
B62(5) 0
B63(5) 1
B64(5) 0
B65(5) 0
B66(5) 1
B67(5) 0
B68(5) 0
B69(5) 0
B70(5) 0
B71(5) 0
B72(5) 0
B73(5) 0
B74(5) 0
B75(5) 1
B76(5) 0
B77(5) 0
B78(5) 0
B79(5) 0
B80(5) 0
B81(5) 0
B82(5) 0
B83(5) 1
B84(5) 1
B85(5) 0
B86(5) 0
B87(5) 0
B88(5) 0
B89(5) 0
B90(5) 0
B91(5) 1
B92(5) 0
B93(5) 0
B94(5) 0
B95(5) 0
B96(5) 0
B97(5) 0
B98(5) 0
B99(5) 0
B100(5) 1
B101(5) 0
B102(5) 0
B103(5) 0
B104(5) 1
B105(5) 0
B106(5) 0
B107(5) 0
B108(5) 0
B109(5) 0
B110(5) 0
B111(5) 1
B112(5) 0
B113(5) 0
B114(5) 0
B115(5) 0
B116(5) 1
B117(5) 0
B118(5) 0
B119(5) 0
B120(5) 0
B121(5) 0
B122(5) 0
B123(5) 1
B124(5) 0
B125(5) 0
B126(5) 0
B127(5) 1
B128(5) 0
B129(5) 0
B130(5) 0
B131(5) 0
B132(5) 0
B133(5) 1
B134(5) 0
B135(5) 0
B136(5) 0
B137(5) 0
B138(5) 0
B139(5) 0
B140(5) 0
B141(5) 1
B142(5) 0
B143(5) 0
B144(5) 0
B145(5) 0
B146(5) 0
B147(5) 0
B148(5) 1
B149(5) 0
B150(5) 0
B151(5) 0
B152(5) 0
B153(5) 0
B154(5) 1
B155(5) 0
B156(5) 0
B157(5) 1
B158(5) 0
B159(5) 0
B160(5) 0
B161(5) 0
B162(5) 0
B163(5) 0
B164(5) 1
B165(5) 0
B166(5) 0
B167(5) 0
B168(5) 0
B169(5) 0
B170(5) 1
B171(5) 0
B172(5) 0
B173(5) 0
B174(5) 0
B175(5) 0
B176(5) 0
B177(5) 0
B178(5) 1
B179(5) 0
B180(5) 0
B181(5) 0
B182(5) 0
B183(5) 0
B184(5) 1
B185(5) 0
B186(5) 1
B187(5) 0
B188(5) 0
B189(5) 0
B190(5) 0
B191(5) 0
B192(5) 0
B193(5) 0
B194(5) 0
B195(5) 0
B196(5) 1
B197(5) 0
B198(5) 0
B199(5) 0
B200(5) 0
B201(5) 0
B202(5) 1
B203(5) 0
B204(5) 0
B205(5) 0
B206(5) 0
B207(5) 0
B208(5) 0
B209(5) 1
B210(5) 1
B211(5) 0
B212(5) 0
B213(5) 0
B214(5) 0
B215(5) 0
B216(5) 0
B217(5) 0
B218(5) 1
B219(5) 0
B220(5) 0
B221(5) 0
B222(5) 0
B223(5) 0
B224(5) 1
B225(5) 0
B226(5) 0
B227(5) 0
B228(5) 0
B229(5) 1
B230(5) 0
B231(5) 0
B232(5) 0
B233(5) 0
B234(5) 0
B235(5) 0
B236(5) 0
B237(5) 0
B238(5) 1
B239(5) 0
B240(5) 0
B241(5) 1
B242(5) 0
B243(5) 0
B244(5) 0
B245(5) 0
B246(5) 0
B247(5) 1
B248(5) 0
B249(5) 0
B250(5) 0
B251(5) 0
B252(5) 1
B253(5) 0
B254(5) 0
B255(5) 0
B256(5) 0
B257(5) 0
B258(5) 0
B259(5) 1
B260(5) 0
B261(5) 0
B262(5) 0
B263(5) 0
B264(5) 0
B265(5) 0
B266(5) 0
B267(5) 0
B268(5) 1
B269(5) 0
B270(5) 0
B271(5) 0
B272(5) 0
B273(5) 1
B274(5) 0
B275(5) 0
B276(5) 0
B277(5) 1
B278(5) 0
B279(5) 0
B280(5) 0
B281(5) 0
B282(5) 0
B283(5) 0
B284(5) 0
B285(5) 1
B286(5) 0
B287(5) 0
B288(5) 0
B289(5) 1
B290(5) 0
B291(5) 0
B292(5) 0
B293(5) 0
B294(5) 0
B295(5) 0
B296(5) 1
B297(5) 0
B298(5) 0
B299(5) 0
B300(5) 0
B301(5) 1
B302(5) 0
B303(5) 0
B304(5) 0
B305(5) 0
B306(5) 0
B307(5) 0
B308(5) 0
B309(5) 0
B310(5) 1
B311(5) 0
B312(5) 0
B313(5) 1
B314(5) 0
B315(5) 0
B316(5) 0
B317(5) 0
B318(5) 1
B319(5) 0
B320(5) 0
B321(5) 0
B322(5) 0
B323(5) 0
B324(5) 0
B325(5) 0
B326(5) 0
B327(5) 0
B328(5) 1
B329(5) 0
B330(5) 0
B331(5) 1
B332(5) 0
B333(5) 0
B334(5) 0
B335(5) 0
B336(5) 0
B337(5) 0
B338(5) 1
B339(5) 0
B340(5) 0
B341(5) 0
B342(5) 0
B343(5) 1
B344(5) 0
B345(5) 0
B346(5) 0
B347(5) 0
B348(5) 0
B349(5) 1
B350(5) 0
B351(5) 0
B352(5) 0
B353(5) 0
B354(5) 0
B355(5) 0
B356(5) 1
B357(5) 0
B358(5) 0
B359(5) 0
B360(5) 0
B361(5) 0
B362(5) 0
B363(5) 0
B364(5) 1
B365(5) 0
B366(5) 0
B367(5) 1
B368(5) 0
B369(5) 0
B370(5) 0
B371(5) 0
B372(5) 0
B373(5) 1
B374(5) 0
B375(5) 0
B376(5) 0
B377(5) 0
B378(5) 0
B379(5) 0
B380(5) 0
B381(5) 0
B382(5) 1
B383(5) 0
B384(0) 0
B385(0) 0
B386(0) 0
B387(0) 0
B388(0) 0
B389(0) 0
B390(0) 0
B391(0) 0
B392(0) 0
B393(0) 0
B394(0) 0
B395(0) 0
B396(0) 0
B397(0) 0
B398(0) 0
B399(0) 0
B400(0) 0
B401(0) 0
B402(0) 0
B403(0) 0
B404(0) 0
B405(0) 0
B406(0) 0
B407(0) 0
B408(0) 0
B409(0) 0
B410(0) 0
B411(0) 0
B412(0) 0
B413(0) 0
B414(0) 0
B415(0) 0
B416(0) 0
B417(0) 0
B418(0) 0
B419(0) 0
B420(0) 0
B421(0) 0
B422(0) 0
B423(0) 0
B424(0) 0
B425(0) 0
B426(0) 0
B427(0) 0
B428(0) 0
B429(0) 0
B430(0) 0
B431(0) 0
B432(0) 0
B433(0) 0
B434(0) 0
B435(0) 0
B436(0) 0
B437(0) 0
B438(0) 0
B439(0) 0
B440(0) 0
B441(0) 0
B442(0) 0
B443(0) 0
B444(0) 0
B445(0) 0
B446(0) 0
B447(0) 0
B448(0) 0
B449(0) 0
B450(0) 0
B451(0) 0
B452(0) 0
B453(0) 0
B454(0) 0
B455(0) 0
B456(0) 0
B457(0) 0
B458(0) 0
B459(0) 0
B460(0) 0
B461(0) 0
B462(0) 0
B463(0) 0
B464(0) 0
B465(0) 0
B466(0) 0
B467(0) 0
B468(0) 0
B469(0) 0
B470(0) 0
B471(0) 0
B472(0) 0
B473(0) 0
B474(0) 0
B475(0) 0
B476(0) 0
B477(0) 0
B478(0) 0
B479(0) 0
B480(0) 0
B481(0) 0
B482(0) 0
B483(0) 0
B484(0) 0
B485(0) 0
B486(0) 0
B487(0) 0
B488(0) 0
B489(0) 0
B490(0) 0
B491(0) 0
B492(0) 0
B493(0) 0
B494(0) 0
B495(0) 0
B496(0) 0
B497(0) 0
B498(0) 0
B499(0) 0
B500(0) 0
B501(0) 0
B502(0) 0
B503(0) 0
B504(0) 0
B505(0) 0
B506(0) 0
B507(0) 0
B508(0) 0
B509(0) 0
B510(0) 0
B511(0) 0
B512(0) 0
B513(0) 0
B514(0) 0
B515(0) 0
B516(0) 0
B517(0) 0
B518(0) 0
B519(0) 0
B520(0) 0
B521(0) 0
B522(0) 0
B523(0) 0
B524(0) 0
B525(0) 0
B526(0) 0
B527(0) 0
B528(0) 0
B529(0) 0
B530(0) 0
B531(0) 0
B532(0) 0
B533(0) 0
B534(0) 0
B535(0) 0
B536(0) 0
B537(0) 0
B538(0) 0
B539(0) 0
B540(0) 0
B541(0) 0
B542(0) 0
B543(0) 0
B544(0) 0
B545(0) 0
B546(0) 0
B547(0) 0
B548(0) 0
B549(0) 0
B550(0) 0
B551(0) 0
B552(0) 0
B553(0) 0
B554(0) 0
B555(0) 0
B556(0) 0
B557(0) 0
B558(0) 0
B559(0) 0
B560(0) 0
B561(0) 0
B562(0) 0
B563(0) 0
B564(0) 0
B565(0) 0
B566(0) 0
B567(0) 0
B568(0) 0
B569(0) 0
B570(0) 0
B571(0) 0
B572(0) 0
B573(0) 0
B574(0) 0
B575(0) 0
B576(0) 0
B577(0) 0
B578(0) 0
B579(0) 0
B580(0) 0
B581(0) 0
B582(0) 0
B583(0) 0
B584(0) 0
B585(0) 0
B586(0) 0
B587(0) 0
B588(0) 0
B589(0) 0
B590(0) 0
B591(0) 0
B592(0) 0
B593(0) 0
B594(0) 0
B595(0) 0
B596(0) 0
B597(0) 0
B598(0) 0
B599(0) 0
B600(0) 0
B601(0) 0
B602(0) 0
B603(0) 0
B604(0) 0
B605(0) 0
B606(0) 0
B607(0) 0
B608(0) 0
B609(0) 0
B610(0) 0
B611(0) 0
B612(0) 0
B613(0) 0
B614(0) 0
B615(0) 0
B616(0) 0
B617(0) 0
B618(0) 0
B619(0) 0
B620(0) 0
B621(0) 0
B622(0) 0
B623(0) 0
B624(0) 0
B625(0) 0
B626(0) 0
B627(0) 0
B628(0) 0
B629(0) 0
B630(0) 0
B631(0) 0
B632(0) 0
B633(0) 0
B634(0) 0
B635(0) 0
B636(0) 0
B637(0) 0
B638(0) 0
B639(0) 0
B640(0) 0
B641(0) 0
B642(0) 0
B643(0) 0
B644(0) 0
B645(0) 0
B646(0) 0
B647(0) 0
B648(0) 0
B649(0) 0
B650(0) 0
B651(0) 0
B652(0) 0
B653(0) 0
B654(0) 0
B655(0) 0
B656(0) 0
B657(0) 0
B658(0) 0
B659(0) 0
B660(0) 0
B661(0) 0
B662(0) 0
B663(0) 0
B664(0) 0
B665(0) 0
B666(0) 0
B667(0) 0
B668(0) 0
B669(0) 0
B670(0) 0
B671(0) 0
B672(0) 0
B673(0) 0
B674(0) 0
B675(0) 0
B676(0) 0
B677(0) 0
B678(0) 0
B679(0) 0
B680(0) 0
B681(0) 0
B682(0) 0
B683(0) 0
B684(0) 0
B685(0) 0
B686(0) 0
B687(0) 0
B688(0) 0
B689(0) 0
B690(0) 0
B691(0) 0
B692(0) 0
B693(0) 0
B694(0) 0
B695(0) 0
B696(0) 0
B697(0) 0
B698(0) 0
B699(0) 0
B700(0) 0
B701(0) 0
B702(0) 0
B703(0) 0
B704(0) 0
B705(0) 0
B706(0) 0
B707(0) 0
B708(0) 0
B709(0) 0
B710(0) 0
B711(0) 0
B712(0) 0
B713(0) 0
B714(0) 0
B715(0) 0
B716(0) 0
B717(0) 0
B718(0) 0
B719(0) 0
B720(0) 0
B721(0) 0
B722(0) 0
B723(0) 0
B724(0) 0
B725(0) 0
B726(0) 0
B727(0) 0
B728(0) 0
B729(0) 0
B730(0) 0
B731(0) 0
B732(0) 0
B733(0) 0
B734(0) 0
B735(0) 0
B736(0) 0
B737(0) 0
B738(0) 0
B739(0) 0
B740(0) 0
B741(0) 0
B742(0) 0
B743(0) 0
B744(0) 0
B745(0) 0
B746(0) 0
B747(0) 0
B748(0) 0
B749(0) 0
B750(0) 0
B751(0) 0
B752(0) 0
B753(0) 0
B754(0) 0
B755(0) 0
B756(0) 0
B757(0) 0
B758(0) 0
B759(0) 0
B760(0) 0
B761(0) 0
B762(0) 0
B763(0) 0
B764(0) 0
B765(0) 0
B766(0) 0
B767(0) 0
C768(102) 584877
C769(102) 635474
C770(102) 615010
C771(102) 534477
C772(102) 549860
C773(102) 650850
C774(103) 102752
C775(104) 143727
C776(104) 149350
C777(104) 199216
C778(104) 232833
C779(103) 245876
C780(1) 5.2203365626976431e-02
C781(1) 9.9856442387341676e-02
C782(1) 1.2175597150849665e-01
C783(1) 3.8886346485953088e-01
C784(1) 5.2531120849000557e-01
C785(1) 4.0203788305156596e-01
C786(9) 0
C787(8) 0
C788(8) 0
C789(8) 5.6660209738828426e-01
C790(8) 0
C791(8) 0
C792(8) 0
C793(8) 0
C794(8) 0
C795(8) 0
C796(8) 0
C797(8) 0
C798(8) 0
C799(8) 0
C800(8) 0
C801(8) 0
C802(8) 0
C803(8) 0
C804(8) 0
C805(8) 0
C806(8) 0
C807(8) 0
C808(8) 0
C809(8) 0
C810(8) 0
C811(8) 0
C812(8) 0
C813(8) 0
C814(8) 0
C815(9) 0
C816(8) 0
C817(8) 1.9195851308453943e-01
C818(8) 2.4143938952717631e-01
C819(8) 0
C820(8) 0
C821(8) 0
C822(8) 0
C823(8) 0
C824(8) 0
C825(8) 0
C826(8) 0
C827(8) 0
C828(8) 0
C829(8) 0
C830(8) 0
C831(8) 0
C832(8) 0
C833(8) 0
C834(8) 0
C835(8) 0
C836(8) 0
C837(8) 0
C838(8) 0
C839(8) 0
C840(8) 0
C841(8) 0
C842(8) 0
C843(8) 0
B844(2) 1
B845(2) 1
B846(2) 1
B847(2) 0
B848(2) 0
C849(10) 0
C850(9) 0
C851(9) 0
C852(9) 0
C853(9) 0
C854(9) 0
C855(9) 0
C856(9) 1.6632993635024781e-01
C857(9) 6.4965769634854245e-02
C858(9) 0
C859(9) 0
C860(9) 0
C861(9) 0
C862(9) 0
C863(9) 0
C864(9) 0
C865(9) 0
C866(9) 0
C867(9) 0
C868(9) 0
C869(9) 0
C870(9) 0
C871(9) 0
C872(9) 0
C873(9) 0
C874(9) 1.1476346575150155e-07
C875(9) 0
C876(9) 0
C877(9) 0
C878(9) 0
C879(9) 0
C880(9) 0
C881(9) 0
C882(9) 0
C883(9) 0
C884(9) 0
C885(9) 0
C886(9) 0
C887(9) 0
C888(10) 0
C889(9) 0
C890(9) 0
C891(9) 0
C892(9) 0
C893(9) 0
C894(9) 0
C895(9) 7.6870417925143386e-01
C896(9) 0
C897(9) 0
C898(9) 0
C899(9) 0
C900(9) 0
C901(9) 0
C902(9) 0
C903(9) 0
C904(9) 0
C905(9) 0
C906(9) 0
C907(9) 0
C908(9) 0
C909(9) 0
C910(9) 0
C911(9) 0
C912(9) 0
C913(9) 0
C914(9) 0
C915(9) 0
C916(9) 0
C917(9) 0
C918(9) 0
C919(9) 0
C920(9) 0
C921(9) 0
C922(9) 0
C923(9) 0
C924(9) 0
C925(9) 0
C926(9) 0
B927(2) 1
B928(2) 1
B929(2) 1
B930(2) 0
B931(2) 1
B932(2) 1
C933(10) 0
C934(9) 0
C935(9) 0
C936(9) 0
C937(9) 0
C938(9) 0
C939(9) 0
C940(9) 0
C941(9) 0
C942(9) 3.6766062504562746e-01
C943(9) 0
C944(9) 0
C945(9) 0
C946(9) 0
C947(9) 0
C948(9) 0
C949(9) 0
C950(9) 0
C951(9) 0
C952(9) 0
C953(9) 0
C954(9) 0
C955(9) 0
C956(9) 0
C957(9) 0
C958(9) 0
C959(9) 0
C960(9) 0
C961(9) 0
C962(9) 0
C963(9) 0
C964(9) 0
C965(9) 0
C966(9) 0
C967(9) 0
C968(9) 0
C969(9) 0
C970(9) 0
C971(9) 0
C972(9) 0
C973(9) 0
C974(9) 0
C975(9) 0
C976(9) 0
C977(9) 0
C978(9) 0
C979(9) 0
C980(9) 0
C981(9) 0
C982(9) 0
C983(9) 0
C984(10) 0
C985(9) 0
C986(9) 0
C987(9) 0
C988(9) 0
C989(9) 0
C990(9) 0
C991(9) 0
C992(9) 0.62821520748711
C993(9) 4.1241674672625028e-03
C994(9) 0
C995(9) 0
C996(9) 0
C997(9) 0
C998(9) 0
C999(9) 0
C1000(9) 0
C1001(9) 0
C1002(9) 0
C1003(9) 0
C1004(9) 0
C1005(9) 0
C1006(9) 0
C1007(9) 0
C1008(9) 0
C1009(9) 0
C1010(9) 0
C1011(9) 0
C1012(9) 0
C1013(9) 0
C1014(9) 0
C1015(9) 0
C1016(9) 0
C1017(9) 0
C1018(9) 0
C1019(9) 0
C1020(9) 0
C1021(9) 0
C1022(9) 0
C1023(9) 0
C1024(9) 0
C1025(9) 0
C1026(9) 0
C1027(9) 0
C1028(9) 0
C1029(9) 0
C1030(9) 0
C1031(9) 0
C1032(9) 0
C1033(9) 0
C1034(9) 0
B1035(2) 1
B1036(2) 1
B1037(2) 0
B1038(2) 0
B1039(2) 1
B1040(2) 1
C1041(10) 0
C1042(9) 0
C1043(9) 2.0258441344897023e-06
C1044(9) 0
C1045(9) 0
C1046(9) 0
C1047(9) 0
C1048(9) 0
C1049(9) 0
C1050(9) 0
C1051(9) 0
C1052(9) 0
C1053(9) 0
C1054(9) 0
C1055(9) 0
C1056(9) 0
C1057(9) 0
C1058(9) 0
C1059(9) 0
C1060(9) 0
C1061(9) 0
C1062(9) 0
C1063(9) 0
C1064(9) 0
C1065(9) 0
C1066(9) 0
C1067(9) 0
C1068(9) 0
C1069(9) 0
C1070(9) 0
C1071(9) 0
C1072(9) 2.1631725747264424e-01
C1073(9) 6.9767470550799393e-01
C1074(9) 8.7971808576801471e-07
C1075(9) 5.0513679817777211e-07
C1076(9) 0
C1077(9) 0
C1078(9) 0
C1079(9) 0
C1080(9) 0
C1081(9) 0
C1082(9) 0
C1083(9) 0
C1084(9) 0
C1085(9) 0
C1086(9) 0
C1087(9) 0
C1088(9) 0
C1089(9) 0
C1090(9) 0
C1091(9) 0
C1092(9) 0
C1093(9) 0
C1094(9) 0
C1095(9) 0
C1096(9) 0
C1097(9) 0
C1098(9) 0
C1099(9) 0
C1100(9) 0
C1101(9) 0
C1102(9) 0
C1103(9) 0
C1104(10) 0
C1105(9) 2.6761181812218204e-08
C1106(9) 0
C1107(9) 0
C1108(9) 0
C1109(9) 0
C1110(9) 0
C1111(9) 0
C1112(9) 0
C1113(9) 0
C1114(9) 0
C1115(9) 0
C1116(9) 0
C1117(9) 0
C1118(9) 0
C1119(9) 0
C1120(9) 0
C1121(9) 0
C1122(9) 0
C1123(9) 0
C1124(9) 0
C1125(9) 0
C1126(9) 0
C1127(9) 0
C1128(9) 0
C1129(9) 0
C1130(9) 0
C1131(9) 0
C1132(9) 0
C1133(9) 0
C1134(9) 0
C1135(9) 8.6004599559161482e-02
C1136(9) 0
C1137(9) 0
C1138(9) 0
C1139(9) 0
C1140(9) 0
C1141(9) 0
C1142(9) 0
C1143(9) 0
C1144(9) 0
C1145(9) 0
C1146(9) 0
C1147(9) 0
C1148(9) 0
C1149(9) 0
C1150(9) 0
C1151(9) 0
C1152(9) 0
C1153(9) 0
C1154(9) 0
C1155(9) 0
C1156(9) 0
C1157(9) 0
C1158(9) 0
C1159(9) 0
C1160(9) 0
C1161(9) 0
C1162(9) 0
C1163(9) 0
C1164(9) 0
C1165(9) 0
C1166(9) 0
B1167(2) 9.9999860899587512e-01
B1168(2) 2.0526053162994717e-06
B1169(2) 1.0000000000000013e+00
B1170(2) 9.9999999999999989e-01
B1171(2) 9.9999746901906728e-01
B1172(2) 9.9999787156762854e-01
C1173(10) 0
C1174(9) 0
C1175(9) 0
C1176(9) 0
C1177(9) 0
C1178(9) 0
C1179(9) 0
C1180(9) 0
C1181(9) 0
C1182(9) 0
C1183(9) 0
C1184(9) 0
C1185(9) 0
C1186(9) 0
C1187(9) 0
C1188(9) 0
C1189(9) 0
C1190(9) 0
C1191(9) 0
C1192(9) 0
C1193(9) 0
C1194(9) 0
C1195(9) 0
C1196(9) 0
C1197(9) 0
C1198(9) 0
C1199(9) 0
C1200(9) 0
C1201(9) 0
C1202(9) 0
C1203(9) 0
C1204(9) 0
C1205(9) 0
C1206(9) 0
C1207(9) 0
C1208(9) 0
C1209(9) 0
C1210(9) 0
C1211(9) 0
C1212(9) 6.2224218020548117e-01
C1213(9) 7.2063834748484629e-02
C1214(9) 0
C1215(9) 0
C1216(9) 0
C1217(9) 0
C1218(9) 0
C1219(9) 0
C1220(9) 0
C1221(9) 0
C1222(9) 0
C1223(9) 0
C1224(9) 0
C1225(9) 0
C1226(9) 0
C1227(9) 0
C1228(9) 0
C1229(9) 0
C1230(9) 0
C1231(10) 0
C1232(9) 0
C1233(9) 0
C1234(9) 0
C1235(9) 0
C1236(9) 0
C1237(9) 0
C1238(9) 0
C1239(9) 0
C1240(9) 0
C1241(9) 0
C1242(9) 0
C1243(9) 0
C1244(9) 0
C1245(9) 0
C1246(9) 0
C1247(9) 0
C1248(9) 0
C1249(9) 0
C1250(9) 0
C1251(9) 0
C1252(9) 0
C1253(9) 0
C1254(9) 0
C1255(9) 0
C1256(9) 0
C1257(9) 0
C1258(9) 0
C1259(9) 0
C1260(9) 0
C1261(9) 0
C1262(9) 0
C1263(9) 6.4971833124705114e-07
C1264(9) 0
C1265(9) 0
C1266(9) 0
C1267(9) 0
C1268(9) 0
C1269(9) 0
C1270(9) 3.0569333532770288e-01
C1271(9) 0
C1272(9) 0
C1273(9) 0
C1274(9) 0
C1275(9) 0
C1276(9) 0
C1277(9) 0
C1278(9) 0
C1279(9) 0
C1280(9) 0
C1281(9) 0
C1282(9) 0
C1283(9) 0
C1284(9) 0
C1285(9) 0
C1286(9) 0
C1287(9) 0
C1288(9) 0
B1289(2) 0
B1290(2) 0
B1291(2) 1
B1292(2) 0
B1293(2) 1
B1294(2) 1
C1295(10) 0
C1296(9) 0
C1297(9) 0
C1298(9) 0
C1299(9) 0
C1300(9) 0
C1301(9) 0
C1302(9) 0
C1303(9) 0
C1304(9) 0
C1305(9) 0
C1306(9) 0
C1307(9) 0
C1308(9) 0
C1309(9) 0
C1310(9) 0
C1311(9) 0
C1312(9) 0
C1313(9) 0
C1314(9) 0
C1315(9) 0
C1316(9) 0
C1317(9) 1.3601464558925680e-01
C1318(9) 0
C1319(9) 0
C1320(9) 0
C1321(9) 0
C1322(9) 0
C1323(9) 0
C1324(9) 0
C1325(9) 0
C1326(9) 0
C1327(9) 0
C1328(9) 0
C1329(9) 0
C1330(9) 0
C1331(9) 0
C1332(9) 0
C1333(9) 0
C1334(9) 0
C1335(9) 0
C1336(9) 0
C1337(9) 0
C1338(9) 0
C1339(9) 0
C1340(9) 0
C1341(9) 0
C1342(9) 0
C1343(9) 0
C1344(9) 0
C1345(9) 0
C1346(9) 0
C1347(9) 0
C1348(9) 0
C1349(9) 0
C1350(9) 0
C1351(9) 0
C1352(9) 0
C1353(9) 0
C1354(9) 0
C1355(9) 0
C1356(9) 0
C1357(9) 0
C1358(10) 0
C1359(9) 0
C1360(9) 0
C1361(9) 0
C1362(9) 0
C1363(9) 0
C1364(9) 0
C1365(9) 0
C1366(9) 0
C1367(9) 0
C1368(9) 0
C1369(9) 0
C1370(9) 0
C1371(9) 0
C1372(9) 0
C1373(9) 0
C1374(9) 0
C1375(9) 0
C1376(9) 0
C1377(9) 0
C1378(9) 0
C1379(9) 2.6213879218488634e-01
C1380(9) 6.0184656222585686e-01
C1381(9) 0
C1382(9) 0
C1383(9) 0
C1384(9) 0
C1385(9) 0
C1386(9) 0
C1387(9) 0
C1388(9) 0
C1389(9) 0
C1390(9) 0
C1391(9) 0
C1392(9) 0
C1393(9) 0
C1394(9) 0
C1395(9) 0
C1396(9) 0
C1397(9) 0
C1398(9) 0
C1399(9) 0
C1400(9) 0
C1401(9) 0
C1402(9) 0
C1403(9) 0
C1404(9) 0
C1405(9) 0
C1406(9) 0
C1407(9) 0
C1408(9) 0
C1409(9) 0
C1410(9) 0
C1411(9) 0
C1412(9) 0
C1413(9) 0
C1414(9) 0
C1415(9) 0
C1416(9) 0
C1417(9) 0
C1418(9) 0
C1419(9) 0
C1420(9) 0
B1421(2) 1
B1422(2) 0
B1423(2) 0
B1424(2) 0
B1425(2) 0
B1426(2) 0
