DualBounds-Example/results/ExampleConfig-All-States_gradient-cuts/LA-county-step-max-45.log

Gurobi 10.0.2 (mac64[x86]) logging started Fri Sep 27 10:34:36 2024

Set parameter LogFile to value "results/ExampleConfig-All-States_gradient-cuts/LA-county-step-max-45.log"
Set parameter TimeLimit to value 10

Gurobi 10.0.2 (mac64[x86]) logging started Fri Sep 27 10:34:36 2024

Set parameter LogFile to value "results/ExampleConfig-All-States_gradient-cuts/LA-county-step-max-45.log"
Set parameter TimeLimit to value 10
Gurobi Optimizer version 10.0.2 build v10.0.2rc0 (mac64[x86])

CPU model: Intel(R) Core(TM) i7-9750H CPU @ 2.60GHz
Thread count: 6 physical cores, 12 logical processors, using up to 12 threads

Optimize a model with 287 rows, 1427 columns and 8638 nonzeros
Model fingerprint: 0xb644f359
Variable types: 624 continuous, 803 integer (803 binary)
Coefficient statistics:
  Matrix range     [2e-02, 7e+05]
  Objective range  [1e+00, 1e+00]
  Bounds range     [1e+00, 7e+05]
  RHS range        [1e+00, 2e+06]

Warning: Completing partial solution with 739 unfixed non-continuous variables out of 803
User MIP start produced solution with objective 1.59003 (0.17s)
User MIP start produced solution with objective 1.59003 (0.18s)
User MIP start produced solution with objective 1.59003 (0.19s)
Loaded user MIP start with objective 1.59003

Presolve removed 50 rows and 0 columns
Presolve time: 0.01s
Presolved: 237 rows, 1427 columns, 8026 nonzeros
Variable types: 612 continuous, 815 integer (803 binary)
Root relaxation presolved: 206 rows, 1458 columns, 7373 nonzeros

Concurrent LP optimizer: primal simplex, dual simplex, and barrier
Showing barrier log only...

Root barrier log...

Ordering time: 0.00s

Barrier statistics:
 AA' NZ     : 2.908e+03
 Factor NZ  : 3.996e+03 (roughly 1 MB of memory)
 Factor Ops : 1.121e+05 (less than 1 second per iteration)
 Threads    : 1

Barrier performed 0 iterations in 0.24 seconds (0.11 work units)
Barrier solve interrupted - model solved by another algorithm


Solved with primal simplex

Root relaxation: objective 2.085059e+00, 558 iterations, 0.03 seconds (0.01 work units)

    Nodes    |    Current Node    |     Objective Bounds      |     Work
 Expl Unexpl |  Obj  Depth IntInf | Incumbent    BestBd   Gap | It/Node Time

     0     0    2.08506    0   46    1.59003    2.08506  31.1%     -    0s
     0     0    2.05512    0   49    1.59003    2.05512  29.3%     -    0s
     0     0    2.05512    0   49    1.59003    2.05512  29.3%     -    0s
     0     0    2.05183    0   51    1.59003    2.05183  29.0%     -    0s
     0     0    2.05169    0   53    1.59003    2.05169  29.0%     -    0s
     0     0    2.05148    0   62    1.59003    2.05148  29.0%     -    0s
     0     0    2.05143    0   62    1.59003    2.05143  29.0%     -    0s
     0     0    2.05143    0   66    1.59003    2.05143  29.0%     -    0s
     0     0    2.05143    0   64    1.59003    2.05143  29.0%     -    0s
     0     0    2.05143    0   63    1.59003    2.05143  29.0%     -    0s
     0     0    2.05143    0   63    1.59003    2.05143  29.0%     -    0s
     0     2    2.05143    0   63    1.59003    2.05143  29.0%     -    0s
  4140  2538    1.62290   85   32    1.59003    1.99062  25.2%  29.3    5s
 22321 15685    1.64871   58   38    1.59003    1.77034  11.3%  26.9   10s

Cutting planes:
  Gomory: 14
  Cover: 18
  MIR: 5
  StrongCG: 1
  Flow cover: 11
  GUB cover: 1
  Inf proof: 2
  RLT: 2
  Lazy constraints: 128

Explored 22940 nodes (614000 simplex iterations) in 10.03 seconds (6.88 work units)
Thread count was 12 (of 12 available processors)

Solution count 1: 1.59003 

Time limit reached
Best objective 1.590028335924e+00, best bound 1.769253980948e+00, gap 11.2719%

User-callback calls 48336, time in user-callback 0.58 sec
Warning: variable name "lam(0, 0, 'in')" has a space
Warning: constraint name "vertex to district[0]" has a space
Warning: to let Gurobi read it back, use rlp format
Warning: variable name "lam(0, 0, 'in')" has a space
Warning: default variable names used to write solution file

Gurobi 10.0.2 (mac64[x86]) logging started Fri Sep 27 11:05:18 2024

Set parameter LogFile to value "results/ExampleConfig-All-States_gradient-cuts/LA-county-step-max-45.log"
Set parameter TimeLimit to value 10

Gurobi 10.0.2 (mac64[x86]) logging started Fri Sep 27 11:05:18 2024

Set parameter LogFile to value "results/ExampleConfig-All-States_gradient-cuts/LA-county-step-max-45.log"
Set parameter TimeLimit to value 10
Gurobi Optimizer version 10.0.2 build v10.0.2rc0 (mac64[x86])

CPU model: Intel(R) Core(TM) i7-9750H CPU @ 2.60GHz
Thread count: 6 physical cores, 12 logical processors, using up to 12 threads

Optimize a model with 287 rows, 1427 columns and 8638 nonzeros
Model fingerprint: 0xb644f359
Variable types: 624 continuous, 803 integer (803 binary)
Coefficient statistics:
  Matrix range     [2e-02, 7e+05]
  Objective range  [1e+00, 1e+00]
  Bounds range     [1e+00, 7e+05]
  RHS range        [1e+00, 2e+06]

Warning: Completing partial solution with 739 unfixed non-continuous variables out of 803
User MIP start produced solution with objective 1.59003 (0.19s)
User MIP start produced solution with objective 1.59003 (0.19s)
User MIP start produced solution with objective 1.59003 (0.20s)
Loaded user MIP start with objective 1.59003

Presolve removed 50 rows and 0 columns
Presolve time: 0.01s
Presolved: 237 rows, 1427 columns, 8026 nonzeros
Variable types: 612 continuous, 815 integer (803 binary)
Root relaxation presolved: 206 rows, 1458 columns, 7373 nonzeros

Concurrent LP optimizer: primal simplex, dual simplex, and barrier
Showing barrier log only...

Root barrier log...

Ordering time: 0.00s

Barrier statistics:
 AA' NZ     : 2.908e+03
 Factor NZ  : 3.996e+03 (roughly 1 MB of memory)
 Factor Ops : 1.121e+05 (less than 1 second per iteration)
 Threads    : 1

Barrier performed 0 iterations in 0.24 seconds (0.11 work units)
Barrier solve interrupted - model solved by another algorithm


Solved with primal simplex

Root relaxation: objective 2.085059e+00, 558 iterations, 0.03 seconds (0.01 work units)

    Nodes    |    Current Node    |     Objective Bounds      |     Work
 Expl Unexpl |  Obj  Depth IntInf | Incumbent    BestBd   Gap | It/Node Time

     0     0    2.08506    0   46    1.59003    2.08506  31.1%     -    0s
     0     0    2.05512    0   49    1.59003    2.05512  29.3%     -    0s
     0     0    2.05512    0   49    1.59003    2.05512  29.3%     -    0s
     0     0    2.05183    0   51    1.59003    2.05183  29.0%     -    0s
     0     0    2.05169    0   53    1.59003    2.05169  29.0%     -    0s
     0     0    2.05148    0   62    1.59003    2.05148  29.0%     -    0s
     0     0    2.05143    0   62    1.59003    2.05143  29.0%     -    0s
     0     0    2.05143    0   66    1.59003    2.05143  29.0%     -    0s
     0     0    2.05143    0   64    1.59003    2.05143  29.0%     -    0s
     0     0    2.05143    0   63    1.59003    2.05143  29.0%     -    0s
     0     0    2.05143    0   63    1.59003    2.05143  29.0%     -    0s
     0     2    2.05143    0   63    1.59003    2.05143  29.0%     -    0s
  4335  2505    1.95043   18   46    1.59003    1.98980  25.1%  29.4    5s
 23358 16412    1.63005   34   37    1.59003    1.76783  11.2%  26.9   10s

Cutting planes:
  Gomory: 14
  Cover: 20
  MIR: 5
  StrongCG: 1
  Flow cover: 11
  GUB cover: 1
  Inf proof: 2
  RLT: 2
  Lazy constraints: 128

Explored 24007 nodes (645037 simplex iterations) in 10.03 seconds (7.08 work units)
Thread count was 12 (of 12 available processors)

Solution count 1: 1.59003 

Time limit reached
Best objective 1.590028335924e+00, best bound 1.766452276678e+00, gap 11.0956%

User-callback calls 50457, time in user-callback 0.57 sec
Warning: variable name "lam(0, 0, 'in')" has a space
Warning: constraint name "vertex to district[0]" has a space
Warning: to let Gurobi read it back, use rlp format
Warning: variable name "lam(0, 0, 'in')" has a space
Warning: default variable names used to write solution file
